data/lp_files/q3/43_1.lp
\ Model foo
\ LP format - for model browsing. Use MPS format to capture full model detail.
Minimize
  z
Subject To
 allocateEach[1]: x[1,1] + x[2,1] + x[3,1] = 1
 allocateEach[2]: x[1,2] + x[2,2] + x[3,2] = 1
 allocateEach[3]: x[1,3] + x[2,3] + x[3,3] = 1
 allocateAllCash: cashProportion[1] + cashProportion[2] + cashProportion[3]
   = 1
 findWorstP[1,2]: z + 0.0398660500717589 cashProportion[1]
   - 0.0398660500717589 cashProportion[2] + 0.379445064583001 x[1,1]
   + 0.3501036517301865 x[1,2] + 0.2305852336150534 x[1,3]
   - 0.379445064583001 x[2,1] - 0.3501036517301865 x[2,2]
   - 0.2305852336150534 x[2,3] >= 0
 findWorstP[1,3]: z + 0.0398660500717589 cashProportion[1]
   - 0.0398660500717589 cashProportion[3] + 0.379445064583001 x[1,1]
   + 0.3501036517301865 x[1,2] + 0.2305852336150534 x[1,3]
   - 0.379445064583001 x[3,1] - 0.3501036517301865 x[3,2]
   - 0.2305852336150534 x[3,3] >= 0
 findWorstP[2,1]: z - 0.0548847420417124 cashProportion[1]
   + 0.0548847420417124 cashProportion[2] - 0.0140504939626784 x[1,1]
   - 0.4750823271130625 x[1,2] - 0.4559824368825466 x[1,3]
   + 0.0140504939626784 x[2,1] + 0.4750823271130625 x[2,2]
   + 0.4559824368825466 x[2,3] >= 0
 findWorstP[2,3]: z + 0.0548847420417124 cashProportion[2]
   - 0.0548847420417124 cashProportion[3] + 0.0140504939626784 x[2,1]
   + 0.4750823271130625 x[2,2] + 0.4559824368825466 x[2,3]
   - 0.0140504939626784 x[3,1] - 0.4750823271130625 x[3,2]
   - 0.4559824368825466 x[3,3] >= 0
 findWorstP[3,1]: z - 0.0643086816720257 cashProportion[1]
   + 0.0643086816720257 cashProportion[3] - 0.2332475884244373 x[1,1]
   - 0.4108681672025723 x[1,2] - 0.2915755627009646 x[1,3]
   + 0.2332475884244373 x[3,1] + 0.4108681672025723 x[3,2]
   + 0.2915755627009646 x[3,3] >= 0
 findWorstP[3,2]: z - 0.0643086816720257 cashProportion[2]
   + 0.0643086816720257 cashProportion[3] - 0.2332475884244373 x[2,1]
   - 0.4108681672025723 x[2,2] - 0.2915755627009646 x[2,3]
   + 0.2332475884244373 x[3,1] + 0.4108681672025723 x[3,2]
   + 0.2915755627009646 x[3,3] >= 0
Bounds
 z <= 1
 -infinity <= cashProportion[1] <= 1
 -infinity <= cashProportion[2] <= 1
 -infinity <= cashProportion[3] <= 1
Binaries
 x[1,1] x[1,2] x[1,3] x[2,1] x[2,2] x[2,3] x[3,1] x[3,2] x[3,3]
End
